c turning on binary mode checking
c parsing input formula with 259840 variables and 1039919 clauses
c finished parsing, read 36614352 bytes from proof file
c detected empty clause; start verification via backward checking
c 69324 of 1039919 clauses in core                            
c 116773 of 764340 lemmas in core using 1635624 resolution steps
c 0 RAT lemmas in core; 17627 redundant literals in core lemmas
s VERIFIED
c verification time: 8.744 seconds
